
Gurobi 9.5.1 (linux64) logging started Tue 16 Aug 2022 09:31:05 PM MST

Set parameter LogFile to value "/home/local/ASUAD/kmajd1/NNRepLayer_v2/demos/walking_example/dynamic_constraint/repair_net/logs/opt_log_multi_34.log"
Gurobi Optimizer version 9.5.1 build v9.5.1rc2 (linux64)
Thread count: 48 physical cores, 96 logical processors, using up to 48 threads
Optimize a model with 15477 rows, 9832 columns and 150229 nonzeros
Model fingerprint: 0xbd31bd89
Model has 135 quadratic objective terms
Variable types: 5512 continuous, 4320 integer (4320 binary)
Coefficient statistics:
  Matrix range     [7e-04, 7e+01]
  Objective range  [3e-02, 3e+00]
  QObjective range [1e-01, 1e-01]
  Bounds range     [6e-04, 3e+02]
  RHS range        [3e-04, 7e+01]

Concurrent MIP optimizer: 3 concurrent instances (16 threads per instance)

Presolve removed 398 rows and 64 columns
Presolve time: 0.27s
Presolved: 15079 rows, 9768 columns, 149703 nonzeros
Presolved model has 135 quadratic objective terms
Variable types: 5448 continuous, 4320 integer (4320 binary)
Root relaxation presolve removed 4320 rows and 4320 columns
Root relaxation presolved: 10759 rows, 5448 columns, 136743 nonzeros
Root relaxation presolved model has 135 quadratic objective terms


Root relaxation: objective 2.000765e+01, 6091 iterations, 0.50 seconds (0.98 work units)

    Nodes    |    Current Node    |     Objective Bounds      |     Work
 Expl Unexpl |  Obj  Depth IntInf | Incumbent    BestBd   Gap | It/Node Time

     0     0      -    -    -              -   20.00765      -     -    1s
     0     0      -    -    -              -   20.00765      -     -    3s
     0     2      -    -    -              -   20.00765      -     -    9s
     7    16      -    -    -              -   20.00765      -     -   10s
  1339  1407      -    -    -              -   20.00765      -     -   15s
  3409  3572      -    -    -              -   20.00765      -     -   20s
  5484  5719      -    -    -              -   20.00765      -     -   25s
  7814  8018      -    -    -              -   20.00765      -     -   30s
  9314  9449      -    -    -              -   20.00765      -     -   37s
  9976 10200      -    -    -              -   20.00765      -     -   40s
 10379  9860      -    -    -       32.56367   20.00765  38.6%     -   68s
 10394  9887      -    -    -       32.56367   20.00765  38.6%     -   70s
 11190  9926      -    -    -       32.56367   20.00765  38.6%     -   78s
 11291 10035      -    -    -       32.56367   20.00765  38.6%     -   84s
 11392 10117      -    -    -       32.56367   20.00765  38.6%     -   85s

Instance 1 was solved

Explored 10474 nodes (790928 simplex iterations) in 88.98 seconds (127.30 work units)
Thread count was 16 (of 96 available processors)

Solution count 10: 30.2579 31.0743 32.5637 ... 45.1206 

Optimal solution found (tolerance 3.50e-01)
Best objective 3.025793104163e+01, best bound 2.000765133592e+01, gap 33.8763%
